<number of tasks>
89

<cycle time>
12

<task times>
1 1
2 2
3 3
4 4
5 5
6 6
7 7
8 8
9 9
10 10
11 1
12 2
13 3
14 4
15 5
16 6
17 7
18 8
19 9
20 10
21 1
22 2
23 3
24 4
25 5
26 6
27 7
28 8
29 9
30 10
31 1
32 2
33 3
34 4
35 5
36 6
37 7
38 8
39 9
40 10
41 1
42 2
43 3
44 4
45 5
46 6
47 7
48 8
49 9
50 10
51 1
52 2
53 3
54 4
55 5
56 6
57 7
58 8
59 9
60 10
61 1
62 2
63 3
64 4
65 5
66 6
67 7
68 8
69 9
70 10
71 1
72 2
73 3
74 4
75 5
76 6
77 7
78 8
79 9
80 10
81 1
82 2
83 3
84 4
85 5
86 6
87 7
88 8
89 9

<precedence relations>
1,2
2,3
3,4
4,5
4,6
4,7
4,8
4,9
5,10
6,11
7,12
8,18
9,18
10,14
11,12
12,13
13,14
14,15
14,16
15,17
16,54
17,18
18,19
18,20
19,22
20,21
20,28
21,54
22,23
23,24
24,25
25,26
25,27
25,29
26,37
27,33
28,29
29,31
30,54
31,32
32,33
33,34
34,35
35,36
35,37
36,38
37,38
38,39
39,40
39,41
39,42
39,43
40,44
41,53
42,53
43,45
44,52
45,46
46,47
47,48
47,49
49,50
50,51
51,52
52,53
53,68
53,69
53,70
53,71
54,55
55,56
56,57
57,58
57,59
57,60
57,61
57,62
57,63
57,64
57,65
57,66
58,67
59,67
60,67
61,67
62,67
63,67
64,67
65,67
66,67
67,73
68,72
69,72
70,72
71,73
72,78
72,80
73,74
74,75
74,76
75,77
76,81
77,78
78,79
79,81
80,81
81,82
81,84
81,85
82,83
83,86
84,86
85,86
86,87
87,88
87,89

<setup times forward>
4,5:2
4,7:2
4,8:1
5,6:2
5,8:1
5,9:2
5,10:1
5,11:2
5,12:2
5,13:2
5,30:2
6,5:2
6,7:2
6,8:1
6,10:1
7,6:2
7,8:1
7,9:2
7,10:1
7,11:2
7,12:2
7,30:2
8,5:1
8,6:1
8,7:1
8,9:1
8,11:1
8,12:1
8,13:1
8,15:2
8,16:1
8,17:2
8,18:2
8,30:1
9,5:2
9,7:2
9,8:1
9,10:1
9,14:1
9,15:1
9,16:2
9,17:1
9,18:1
10,6:1
10,7:1
10,9:1
10,11:1
10,12:1
10,13:1
10,30:1
11,5:2
11,7:2
11,8:1
11,10:1
12,5:2
12,8:1
12,10:1
13,5:2
13,8:1
13,10:1
13,14:1
14,9:1
14,15:2
14,16:1
14,30:1
15,8:2
15,9:1
15,16:3
15,30:1
16,8:1
16,9:2
16,15:3
16,17:3
16,18:3
16,19:2
16,22:2
16,23:4
16,24:4
16,25:4
16,26:4
16,28:2
16,29:1
16,30:2
16,31:1
16,32:1
16,34:4
16,35:4
16,37:4
16,38:1
16,40:4
16,42:4
16,44:1
16,45:3
16,47:2
16,48:3
16,49:2
16,50:4
16,51:4
16,52:4
16,53:2
16,54:1
16,68:2
16,69:2
16,72:1
16,80:4
17,8:2
17,9:1
17,16:3
17,30:1
18,16:3
18,19:1
18,20:3
18,30:1
19,16:2
19,20:2
19,21:2
19,54:1
19,55:2
19,56:2
19,57:1
19,58:1
19,60:2
19,61:2
19,62:2
19,64:2
19,66:2
19,67:2
20,19:2
20,22:2
20,23:4
20,24:4
20,25:4
20,26:4
20,28:2
20,30:2
21,19:2
21,22:2
21,23:4
21,24:4
21,25:4
21,26:4
21,28:2
21,29:1
21,30:2
21,31:1
21,32:1
21,34:4
21,35:4
21,37:4
21,38:1
21,40:4
21,42:4
21,44:1
21,45:3
21,47:2
21,48:3
21,49:2
21,50:4
21,51:4
21,52:4
21,53:2
21,54:1
21,68:2
21,69:2
21,72:1
21,80:4
22,16:2
22,20:2
22,21:2
22,23:2
22,54:1
22,55:2
22,56:2
22,57:1
22,58:1
22,60:2
22,61:2
22,62:2
22,64:2
22,66:2
22,67:2
23,16:4
23,20:4
23,21:4
23,28:2
23,30:2
23,54:3
23,55:4
23,56:4
23,57:1
23,58:3
23,59:2
23,62:4
23,63:2
23,64:4
23,65:2
23,66:4
23,67:4
24,16:4
24,20:4
24,21:4
24,28:2
24,30:2
24,54:3
24,55:4
24,56:4
24,57:1
24,58:3
24,59:2
24,62:4
24,63:2
24,64:4
24,65:2
24,66:4
24,67:4
25,16:4
25,20:4
25,21:4
25,27:4
25,28:2
25,29:3
25,30:2
25,54:3
25,55:4
25,56:4
25,57:1
25,58:3
25,59:2
25,62:4
25,63:2
25,64:4
25,65:2
25,66:4
25,67:4
26,16:4
26,20:4
26,21:4
26,27:4
26,28:2
26,29:3
26,30:2
26,31:3
26,32:3
26,33:4
26,36:4
26,54:3
26,55:4
26,56:4
26,57:1
26,58:3
26,59:2
26,62:4
26,63:2
26,64:4
26,65:2
26,66:4
26,67:4
27,26:4
27,28:2
27,29:1
27,30:2
27,31:1
27,32:1
27,54:1
27,57:3
27,58:1
27,59:2
27,60:4
27,61:4
27,63:2
27,65:2
28,16:2
28,21:2
28,23:2
28,24:2
28,25:2
28,26:2
28,27:2
28,29:1
28,54:1
28,55:2
28,56:2
28,57:1
28,58:1
28,60:2
28,61:2
28,62:2
28,64:2
28,66:2
28,67:2
29,16:1
29,21:1
29,26:3
29,27:1
29,30:1
29,55:1
29,56:1
29,57:2
29,59:1
29,60:3
29,61:3
29,62:1
29,63:1
29,64:1
29,65:1
29,66:1
29,67:1
30,5:2
30,7:2
30,8:1
30,10:1
30,14:1
30,15:1
30,16:2
30,17:1
30,18:1
30,20:2
30,21:2
30,23:2
30,24:2
30,25:2
30,26:2
30,27:2
30,29:1
30,31:1
30,32:1
30,33:2
30,34:2
30,35:2
30,36:2
30,37:2
30,38:1
30,39:2
30,40:2
30,41:2
30,42:2
30,43:2
30,44:1
30,45:1
30,46:2
30,48:1
30,50:2
30,51:2
30,52:2
30,54:1
30,70:2
30,71:2
30,72:1
30,80:2
31,16:1
31,21:1
31,26:3
31,27:1
31,30:1
31,55:1
31,56:1
31,57:2
31,59:1
31,60:3
31,61:3
31,62:1
31,63:1
31,64:1
31,65:1
31,66:1
31,67:1
32,16:1
32,21:1
32,26:3
32,27:1
32,30:1
32,33:1
32,55:1
32,56:1
32,57:2
32,59:1
32,60:3
32,61:3
32,62:1
32,63:1
32,64:1
32,65:1
32,66:1
32,67:1
33,26:4
33,30:2
33,34:4
33,54:1
33,57:3
33,58:1
33,59:2
33,60:4
33,61:4
33,63:2
33,65:2
34,16:4
34,21:4
34,30:2
34,54:3
34,55:4
34,56:4
34,57:1
34,58:3
34,59:2
34,62:4
34,63:2
34,64:4
34,65:2
34,66:4
34,67:4
35,16:4
35,21:4
35,30:2
35,36:4
35,54:3
35,55:4
35,56:4
35,57:1
35,58:3
35,59:2
35,62:4
35,63:2
35,64:4
35,65:2
35,66:4
35,67:4
36,26:4
36,30:2
36,37:4
36,38:1
36,54:1
36,57:3
36,58:1
36,59:2
36,60:4
36,61:4
36,63:2
36,65:2
37,16:4
37,21:4
37,30:2
37,36:4
37,38:3
37,54:3
37,55:4
37,56:4
37,57:1
37,58:3
37,59:2
37,62:4
37,63:2
37,64:4
37,65:2
37,66:4
37,67:4
38,16:1
38,21:1
38,30:1
38,39:1
38,55:1
38,56:1
38,57:2
38,59:1
38,60:3
38,61:3
38,62:1
38,63:1
38,64:1
38,65:1
38,66:1
38,67:1
39,30:2
39,40:4
39,42:4
39,54:1
39,57:3
39,58:1
39,59:2
39,60:4
39,61:4
39,63:2
39,65:2
40,16:4
40,21:4
40,30:2
40,41:4
40,43:4
40,44:3
40,45:1
40,46:4
40,47:2
40,48:1
40,49:2
40,54:3
40,55:4
40,56:4
40,57:1
40,58:3
40,59:2
40,62:4
40,63:2
40,64:4
40,65:2
40,66:4
40,67:4
41,30:2
41,40:4
41,42:4
41,44:1
41,45:3
41,47:2
41,48:3
41,49:2
41,50:4
41,51:4
41,52:4
41,53:2
41,54:1
41,57:3
41,58:1
41,59:2
41,60:4
41,61:4
41,63:2
41,65:2
42,16:4
42,21:4
42,30:2
42,41:4
42,43:4
42,44:3
42,45:1
42,46:4
42,47:2
42,48:1
42,49:2
42,53:2
42,54:3
42,55:4
42,56:4
42,57:1
42,58:3
42,59:2
42,62:4
42,63:2
42,64:4
42,65:2
42,66:4
42,67:4
43,30:2
43,40:4
43,42:4
43,44:1
43,45:3
43,54:1
43,57:3
43,58:1
43,59:2
43,60:4
43,61:4
43,63:2
43,65:2
44,16:1
44,21:1
44,30:1
44,41:1
44,42:3
44,43:1
44,45:2
44,46:1
44,47:1
44,48:2
44,49:1
44,50:3
44,51:3
44,52:3
44,55:1
44,56:1
44,57:2
44,59:1
44,60:3
44,61:3
44,62:1
44,63:1
44,64:1
44,65:1
44,66:1
44,67:1
45,16:3
45,21:3
45,30:1
45,40:1
45,41:3
45,42:1
45,44:2
45,46:3
45,54:2
45,55:3
45,56:3
45,58:2
45,59:1
45,60:1
45,61:1
45,62:3
45,63:1
45,64:3
45,65:1
45,66:3
45,67:3
46,30:2
46,40:4
46,42:4
46,44:1
46,47:2
46,54:1
46,57:3
46,58:1
46,59:2
46,60:4
46,61:4
46,63:2
46,65:2
47,16:2
47,21:2
47,40:2
47,41:2
47,42:2
47,44:1
47,48:1
47,54:1
47,55:2
47,56:2
47,57:1
47,58:1
47,60:2
47,61:2
47,62:2
47,64:2
47,66:2
47,67:2
48,16:3
48,21:3
48,30:1
48,40:1
48,41:3
48,42:1
48,44:2
48,49:1
48,50:1
48,51:1
48,52:1
48,53:1
48,54:2
48,55:3
48,56:3
48,58:2
48,59:1
48,60:1
48,61:1
48,62:3
48,63:1
48,64:3
48,65:1
48,66:3
48,67:3
48,68:1
48,69:1
48,70:3
48,71:3
48,72:2
48,73:1
48,74:1
48,75:1
48,76:1
48,77:1
48,78:2
48,79:3
48,80:1
48,81:1
48,82:1
48,83:1
48,85:1
48,86:1
48,87:1
48,88:2
48,89:1
49,16:2
49,21:2
49,40:2
49,41:2
49,42:2
49,44:1
49,48:1
49,50:2
49,54:1
49,55:2
49,56:2
49,57:1
49,58:1
49,60:2
49,61:2
49,62:2
49,64:2
49,66:2
49,67:2
50,16:4
50,21:4
50,30:2
50,41:4
50,44:3
50,48:1
50,54:3
50,55:4
50,56:4
50,57:1
50,58:3
50,59:2
50,62:4
50,63:2
50,64:4
50,65:2
50,66:4
50,67:4
51,16:4
51,21:4
51,30:2
51,41:4
51,44:3
51,48:1
51,54:3
51,55:4
51,56:4
51,57:1
51,58:3
51,59:2
51,62:4
51,63:2
51,64:4
51,65:2
51,66:4
51,67:4
52,16:4
52,21:4
52,30:2
52,41:4
52,48:1
52,53:2
52,54:3
52,55:4
52,56:4
52,57:1
52,58:3
52,59:2
52,62:4
52,63:2
52,64:4
52,65:2
52,66:4
52,67:4
53,16:2
53,21:2
53,48:1
53,54:1
53,55:2
53,56:2
53,57:1
53,58:1
53,60:2
53,61:2
53,62:2
53,64:2
53,66:2
53,67:2
53,70:2
53,71:2
54,19:1
54,22:1
54,23:3
54,24:3
54,25:3
54,26:3
54,27:1
54,28:1
54,33:1
54,34:3
54,35:3
54,36:1
54,37:3
54,39:1
54,40:3
54,41:1
54,42:3
54,43:1
54,45:2
54,46:1
54,47:1
54,48:2
54,49:1
54,50:3
54,51:3
54,52:3
54,53:1
54,55:1
54,68:1
54,69:1
54,70:1
54,71:1
54,80:3
55,19:2
55,22:2
55,23:4
55,24:4
55,25:4
55,26:4
55,28:2
55,29:1
55,31:1
55,32:1
55,34:4
55,35:4
55,37:4
55,38:1
55,40:4
55,42:4
55,44:1
55,45:3
55,47:2
55,48:3
55,49:2
55,50:4
55,51:4
55,52:4
55,53:2
55,68:2
55,69:2
55,72:1
55,80:4
56,19:2
56,22:2
56,23:4
56,24:4
56,25:4
56,26:4
56,28:2
56,29:1
56,31:1
56,32:1
56,34:4
56,35:4
56,37:4
56,38:1
56,40:4
56,42:4
56,44:1
56,45:3
56,47:2
56,48:3
56,49:2
56,50:4
56,51:4
56,52:4
56,53:2
56,57:3
56,68:2
56,69:2
56,72:1
56,80:4
57,19:1
57,22:1
57,23:1
57,24:1
57,25:1
57,26:1
57,27:3
57,28:1
57,29:2
57,31:2
57,32:2
57,33:3
57,34:1
57,35:1
57,36:3
57,37:1
57,38:2
57,39:3
57,40:1
57,41:3
57,42:1
57,43:3
57,44:2
57,46:3
57,47:1
57,49:1
57,50:1
57,51:1
57,52:1
57,53:1
57,58:2
57,59:1
57,60:1
57,61:1
57,62:3
57,63:1
57,64:3
57,65:1
57,66:3
57,68:1
57,69:1
57,70:3
57,71:3
57,72:2
57,80:1
58,19:1
58,22:1
58,23:3
58,24:3
58,25:3
58,26:3
58,27:1
58,28:1
58,33:1
58,34:3
58,35:3
58,36:1
58,37:3
58,39:1
58,40:3
58,41:1
58,42:3
58,43:1
58,45:2
58,46:1
58,47:1
58,48:2
58,49:1
58,50:3
58,51:3
58,52:3
58,53:1
58,59:1
58,60:3
58,61:3
58,62:1
58,63:1
58,64:1
58,65:1
58,66:1
58,67:1
58,68:1
58,69:1
58,70:1
58,71:1
58,80:3
59,23:2
59,24:2
59,25:2
59,26:2
59,27:2
59,29:1
59,31:1
59,32:1
59,33:2
59,34:2
59,35:2
59,36:2
59,37:2
59,38:1
59,39:2
59,40:2
59,41:2
59,42:2
59,43:2
59,44:1
59,45:1
59,46:2
59,48:1
59,50:2
59,51:2
59,52:2
59,58:1
59,60:2
59,61:2
59,62:2
59,64:2
59,66:2
59,67:2
59,70:2
59,71:2
59,72:1
59,80:2
60,19:2
60,22:2
60,27:4
60,28:2
60,29:3
60,31:3
60,32:3
60,33:4
60,36:4
60,38:3
60,39:4
60,41:4
60,43:4
60,44:3
60,45:1
60,46:4
60,47:2
60,48:1
60,49:2
60,53:2
60,58:3
60,59:2
60,62:4
60,63:2
60,64:4
60,65:2
60,66:4
60,67:4
60,68:2
60,69:2
60,70:4
60,71:4
60,72:3
61,19:2
61,22:2
61,27:4
61,28:2
61,29:3
61,31:3
61,32:3
61,33:4
61,36:4
61,38:3
61,39:4
61,41:4
61,43:4
61,44:3
61,45:1
61,46:4
61,47:2
61,48:1
61,49:2
61,53:2
61,58:3
61,59:2
61,62:4
61,63:2
61,64:4
61,65:2
61,66:4
61,67:4
61,68:2
61,69:2
61,70:4
61,71:4
61,72:3
62,19:2
62,22:2
62,23:4
62,24:4
62,25:4
62,26:4
62,28:2
62,29:1
62,31:1
62,32:1
62,34:4
62,35:4
62,37:4
62,38:1
62,40:4
62,42:4
62,44:1
62,45:3
62,47:2
62,48:3
62,49:2
62,50:4
62,51:4
62,52:4
62,53:2
62,58:1
62,59:2
62,60:4
62,61:4
62,63:2
62,65:2
62,68:2
62,69:2
62,72:1
62,80:4
63,23:2
63,24:2
63,25:2
63,26:2
63,27:2
63,29:1
63,31:1
63,32:1
63,33:2
63,34:2
63,35:2
63,36:2
63,37:2
63,38:1
63,39:2
63,40:2
63,41:2
63,42:2
63,43:2
63,44:1
63,45:1
63,46:2
63,48:1
63,50:2
63,51:2
63,52:2
63,58:1
63,60:2
63,61:2
63,62:2
63,64:2
63,66:2
63,67:2
63,70:2
63,71:2
63,72:1
63,80:2
64,19:2
64,22:2
64,23:4
64,24:4
64,25:4
64,26:4
64,28:2
64,29:1
64,31:1
64,32:1
64,34:4
64,35:4
64,37:4
64,38:1
64,40:4
64,42:4
64,44:1
64,45:3
64,47:2
64,48:3
64,49:2
64,50:4
64,51:4
64,52:4
64,53:2
64,58:1
64,59:2
64,60:4
64,61:4
64,63:2
64,65:2
64,68:2
64,69:2
64,72:1
64,80:4
65,23:2
65,24:2
65,25:2
65,26:2
65,27:2
65,29:1
65,31:1
65,32:1
65,33:2
65,34:2
65,35:2
65,36:2
65,37:2
65,38:1
65,39:2
65,40:2
65,41:2
65,42:2
65,43:2
65,44:1
65,45:1
65,46:2
65,48:1
65,50:2
65,51:2
65,52:2
65,58:1
65,60:2
65,61:2
65,62:2
65,64:2
65,66:2
65,67:2
65,70:2
65,71:2
65,72:1
65,80:2
66,19:2
66,22:2
66,23:4
66,24:4
66,25:4
66,26:4
66,28:2
66,29:1
66,31:1
66,32:1
66,34:4
66,35:4
66,37:4
66,38:1
66,40:4
66,42:4
66,44:1
66,45:3
66,47:2
66,48:3
66,49:2
66,50:4
66,51:4
66,52:4
66,53:2
66,58:1
66,59:2
66,60:4
66,61:4
66,63:2
66,65:2
66,68:2
66,69:2
66,72:1
66,80:4
67,19:2
67,22:2
67,23:4
67,24:4
67,25:4
67,26:4
67,28:2
67,29:1
67,31:1
67,32:1
67,34:4
67,35:4
67,37:4
67,38:1
67,40:4
67,42:4
67,44:1
67,45:3
67,47:2
67,48:3
67,49:2
67,50:4
67,51:4
67,52:4
67,53:2
67,68:2
67,69:2
67,72:1
67,73:2
67,80:4
68,16:2
68,21:2
68,48:1
68,54:1
68,55:2
68,56:2
68,57:1
68,58:1
68,60:2
68,61:2
68,62:2
68,64:2
68,66:2
68,67:2
68,70:2
68,71:2
68,72:1
68,75:2
68,77:2
69,16:2
69,21:2
69,48:1
69,54:1
69,55:2
69,56:2
69,57:1
69,58:1
69,60:2
69,61:2
69,62:2
69,64:2
69,66:2
69,67:2
69,70:2
69,71:2
69,72:1
69,75:2
69,77:2
70,30:2
70,48:3
70,54:1
70,57:3
70,58:1
70,59:2
70,60:4
70,61:4
70,63:2
70,65:2
70,68:2
70,69:2
70,72:1
70,73:2
70,74:2
70,75:4
70,76:2
70,77:4
71,30:2
71,48:3
71,54:1
71,57:3
71,58:1
71,59:2
71,60:4
71,61:4
71,63:2
71,65:2
71,68:2
71,69:2
71,72:1
71,73:2
71,80:4
72,16:1
72,21:1
72,30:1
72,48:2
72,55:1
72,56:1
72,57:2
72,59:1
72,60:3
72,61:3
72,62:1
72,63:1
72,64:1
72,65:1
72,66:1
72,67:1
72,71:1
72,73:1
72,74:1
72,75:3
72,76:1
72,77:3
72,80:3
73,48:1
73,70:2
73,72:1
73,80:2
74,48:1
74,70:2
74,72:1
74,75:2
74,80:2
75,48:1
75,68:2
75,69:2
75,70:4
75,72:3
75,76:2
76,48:1
76,70:2
76,72:1
76,75:2
76,77:2
76,78:1
76,79:2
76,80:2
77,48:1
77,68:2
77,69:2
77,70:4
77,72:3
77,76:2
77,78:3
78,48:2
78,76:1
78,79:1
78,80:3
79,48:3
79,76:2
79,80:4
79,81:2
80,16:4
80,21:4
80,30:2
80,48:1
80,54:3
80,55:4
80,56:4
80,57:1
80,58:3
80,59:2
80,62:4
80,63:2
80,64:4
80,65:2
80,66:4
80,67:4
80,71:4
80,73:2
80,74:2
80,76:2
80,78:3
80,79:4
80,81:2
81,48:1
81,84:1
81,85:2
82,48:1
82,84:1
82,85:2
83,48:1
83,84:1
83,85:2
83,86:2
84,82:1
84,83:1
84,85:1
84,86:1
85,48:1
85,82:2
85,83:2
85,84:1
86,48:1
87,48:1
87,88:3
87,89:2
88,48:2
88,89:1
89,48:1
89,88:1

<setup times backward>
5,1:2
5,2:2
5,3:2
5,4:2
5,6:2
5,8:1
5,9:2
5,11:2
5,12:2
5,13:2
5,30:2
7,1:2
7,2:2
7,3:2
7,4:2
7,6:2
7,8:1
7,9:2
7,10:1
7,11:2
7,30:2
8,1:1
8,2:1
8,3:1
8,4:1
8,6:1
8,9:1
8,11:1
8,12:1
8,13:1
8,15:2
8,17:2
8,30:1
9,15:1
9,17:1
10,1:1
10,2:1
10,3:1
10,4:1
10,6:1
10,9:1
10,11:1
10,12:1
10,13:1
10,30:1
14,1:1
14,2:1
14,3:1
14,4:1
14,6:1
14,9:1
14,11:1
14,12:1
14,13:1
14,30:1
16,1:2
16,2:2
16,3:2
16,4:2
16,6:2
16,8:1
16,9:2
16,10:1
16,11:2
16,12:2
16,13:2
16,14:1
16,15:3
16,17:3
16,18:3
16,19:2
16,22:2
16,23:4
16,24:4
16,25:4
16,26:4
16,28:2
16,29:1
16,30:2
16,31:1
16,32:1
16,34:4
16,35:4
16,37:4
16,38:1
16,40:4
16,42:4
16,44:1
16,45:3
16,47:2
16,48:3
16,49:2
16,50:4
16,51:4
16,52:4
16,53:2
16,68:2
16,69:2
16,72:1
16,80:4
19,15:1
19,17:1
19,18:1
19,57:1
19,60:2
19,61:2
20,1:2
20,2:2
20,3:2
20,4:2
20,6:2
20,8:1
20,9:2
20,10:1
20,11:2
20,12:2
20,13:2
20,14:1
20,15:3
20,17:3
20,18:3
20,19:2
20,22:2
20,23:4
20,24:4
20,25:4
20,26:4
20,30:2
21,1:2
21,2:2
21,3:2
21,4:2
21,6:2
21,8:1
21,9:2
21,10:1
21,11:2
21,12:2
21,13:2
21,14:1
21,15:3
21,17:3
21,18:3
21,19:2
21,22:2
21,23:4
21,24:4
21,25:4
21,26:4
21,28:2
21,29:1
21,30:2
21,31:1
21,32:1
21,34:4
21,35:4
21,37:4
21,38:1
21,40:4
21,42:4
21,44:1
21,45:3
21,47:2
21,48:3
21,49:2
21,50:4
21,51:4
21,52:4
21,53:2
21,68:2
21,69:2
21,72:1
21,80:4
22,15:1
22,17:1
22,18:1
22,57:1
22,60:2
22,61:2
27,1:2
27,2:2
27,3:2
27,4:2
27,6:2
27,8:1
27,9:2
27,10:1
27,11:2
27,12:2
27,13:2
27,14:1
27,15:3
27,17:3
27,18:3
27,19:2
27,22:2
27,23:4
27,24:4
27,25:4
27,26:4
27,28:2
27,29:1
27,30:2
27,31:1
27,32:1
27,54:1
27,57:3
27,58:1
27,59:2
27,60:4
27,61:4
27,63:2
27,65:2
28,15:1
28,17:1
28,18:1
28,23:2
28,24:2
28,25:2
28,26:2
28,57:1
28,60:2
28,61:2
29,1:1
29,2:1
29,3:1
29,4:1
29,6:1
29,9:1
29,11:1
29,12:1
29,13:1
29,15:2
29,17:2
29,18:2
29,19:1
29,22:1
29,23:3
29,24:3
29,25:3
29,26:3
29,28:1
29,30:1
29,57:2
29,59:1
29,60:3
29,61:3
29,63:1
29,65:1
30,15:1
30,17:1
30,18:1
30,23:2
30,24:2
30,25:2
30,26:2
30,34:2
30,35:2
30,37:2
30,40:2
30,42:2
30,45:1
30,48:1
30,50:2
30,51:2
30,52:2
30,80:2
31,1:1
31,2:1
31,3:1
31,4:1
31,6:1
31,9:1
31,11:1
31,12:1
31,13:1
31,15:2
31,17:2
31,18:2
31,19:1
31,22:1
31,23:3
31,24:3
31,25:3
31,26:3
31,28:1
31,30:1
31,57:2
31,59:1
31,60:3
31,61:3
31,63:1
31,65:1
32,1:1
32,2:1
32,3:1
32,4:1
32,6:1
32,9:1
32,11:1
32,12:1
32,13:1
32,15:2
32,17:2
32,18:2
32,19:1
32,22:1
32,23:3
32,24:3
32,25:3
32,26:3
32,28:1
32,30:1
32,57:2
32,59:1
32,60:3
32,61:3
32,63:1
32,65:1
33,1:2
33,2:2
33,3:2
33,4:2
33,6:2
33,8:1
33,9:2
33,10:1
33,11:2
33,12:2
33,13:2
33,14:1
33,15:3
33,17:3
33,18:3
33,19:2
33,22:2
33,23:4
33,24:4
33,25:4
33,26:4
33,28:2
33,29:1
33,30:2
33,31:1
33,32:1
33,54:1
33,57:3
33,58:1
33,59:2
33,60:4
33,61:4
33,63:2
33,65:2
36,1:2
36,2:2
36,3:2
36,4:2
36,6:2
36,8:1
36,9:2
36,10:1
36,11:2
36,12:2
36,13:2
36,14:1
36,15:3
36,17:3
36,18:3
36,19:2
36,22:2
36,23:4
36,24:4
36,25:4
36,26:4
36,28:2
36,29:1
36,30:2
36,31:1
36,32:1
36,34:4
36,35:4
36,37:4
36,54:1
36,57:3
36,58:1
36,59:2
36,60:4
36,61:4
36,63:2
36,65:2
38,1:1
38,2:1
38,3:1
38,4:1
38,6:1
38,9:1
38,11:1
38,12:1
38,13:1
38,15:2
38,17:2
38,18:2
38,19:1
38,22:1
38,23:3
38,24:3
38,25:3
38,26:3
38,28:1
38,30:1
38,34:3
38,35:3
38,37:3
38,57:2
38,59:1
38,60:3
38,61:3
38,63:1
38,65:1
39,1:2
39,2:2
39,3:2
39,4:2
39,6:2
39,8:1
39,9:2
39,10:1
39,11:2
39,12:2
39,13:2
39,14:1
39,15:3
39,17:3
39,18:3
39,19:2
39,22:2
39,23:4
39,24:4
39,25:4
39,26:4
39,28:2
39,29:1
39,30:2
39,31:1
39,32:1
39,34:4
39,35:4
39,37:4
39,38:1
39,54:1
39,57:3
39,58:1
39,59:2
39,60:4
39,61:4
39,63:2
39,65:2
41,1:2
41,2:2
41,3:2
41,4:2
41,6:2
41,8:1
41,9:2
41,10:1
41,11:2
41,12:2
41,13:2
41,14:1
41,15:3
41,17:3
41,18:3
41,19:2
41,22:2
41,23:4
41,24:4
41,25:4
41,26:4
41,28:2
41,29:1
41,30:2
41,31:1
41,32:1
41,34:4
41,35:4
41,37:4
41,38:1
41,40:4
41,42:4
41,44:1
41,45:3
41,47:2
41,48:3
41,49:2
41,50:4
41,51:4
41,52:4
41,54:1
41,57:3
41,58:1
41,59:2
41,60:4
41,61:4
41,63:2
41,65:2
43,1:2
43,2:2
43,3:2
43,4:2
43,6:2
43,8:1
43,9:2
43,10:1
43,11:2
43,12:2
43,13:2
43,14:1
43,15:3
43,17:3
43,18:3
43,19:2
43,22:2
43,23:4
43,24:4
43,25:4
43,26:4
43,28:2
43,29:1
43,30:2
43,31:1
43,32:1
43,34:4
43,35:4
43,37:4
43,38:1
43,40:4
43,42:4
43,44:1
43,54:1
43,57:3
43,58:1
43,59:2
43,60:4
43,61:4
43,63:2
43,65:2
44,1:1
44,2:1
44,3:1
44,4:1
44,6:1
44,9:1
44,11:1
44,12:1
44,13:1
44,15:2
44,17:2
44,18:2
44,19:1
44,22:1
44,23:3
44,24:3
44,25:3
44,26:3
44,28:1
44,30:1
44,34:3
44,35:3
44,37:3
44,40:3
44,42:3
44,45:2
44,47:1
44,48:2
44,49:1
44,50:3
44,51:3
44,57:2
44,59:1
44,60:3
44,61:3
44,63:1
44,65:1
45,23:1
45,24:1
45,25:1
45,26:1
45,34:1
45,35:1
45,37:1
45,40:1
45,42:1
45,60:1
45,61:1
46,1:2
46,2:2
46,3:2
46,4:2
46,6:2
46,8:1
46,9:2
46,10:1
46,11:2
46,12:2
46,13:2
46,14:1
46,15:3
46,17:3
46,18:3
46,19:2
46,22:2
46,23:4
46,24:4
46,25:4
46,26:4
46,28:2
46,29:1
46,30:2
46,31:1
46,32:1
46,34:4
46,35:4
46,37:4
46,38:1
46,40:4
46,42:4
46,44:1
46,45:3
46,54:1
46,57:3
46,58:1
46,59:2
46,60:4
46,61:4
46,63:2
46,65:2
47,15:1
47,17:1
47,18:1
47,23:2
47,24:2
47,25:2
47,26:2
47,34:2
47,35:2
47,37:2
47,40:2
47,42:2
47,45:1
47,57:1
47,60:2
47,61:2
48,23:1
48,24:1
48,25:1
48,26:1
48,34:1
48,35:1
48,37:1
48,40:1
48,42:1
48,50:1
48,51:1
48,52:1
48,60:1
48,61:1
48,75:1
48,77:1
48,80:1
48,85:1
48,86:1
48,87:1
49,15:1
49,17:1
49,18:1
49,23:2
49,24:2
49,25:2
49,26:2
49,34:2
49,35:2
49,37:2
49,40:2
49,42:2
49,45:1
49,48:1
49,57:1
49,60:2
49,61:2
53,15:1
53,17:1
53,18:1
53,23:2
53,24:2
53,25:2
53,26:2
53,34:2
53,35:2
53,37:2
53,40:2
53,42:2
53,45:1
53,48:1
53,50:2
53,51:2
53,52:2
53,57:1
53,60:2
53,61:2
54,1:1
54,2:1
54,3:1
54,4:1
54,6:1
54,9:1
54,11:1
54,12:1
54,13:1
54,15:2
54,17:2
54,18:2
54,19:1
54,22:1
54,23:3
54,24:3
54,25:3
54,26:3
54,28:1
54,30:1
54,34:3
54,35:3
54,37:3
54,40:3
54,42:3
54,45:2
54,47:1
54,48:2
54,49:1
54,50:3
54,51:3
54,52:3
54,53:1
54,68:1
54,69:1
54,80:3
55,1:2
55,2:2
55,3:2
55,4:2
55,6:2
55,8:1
55,9:2
55,10:1
55,11:2
55,12:2
55,13:2
55,14:1
55,15:3
55,17:3
55,18:3
55,19:2
55,22:2
55,23:4
55,24:4
55,25:4
55,26:4
55,28:2
55,29:1
55,30:2
55,31:1
55,32:1
55,34:4
55,35:4
55,37:4
55,38:1
55,40:4
55,42:4
55,44:1
55,45:3
55,47:2
55,48:3
55,49:2
55,50:4
55,51:4
55,52:4
55,53:2
55,54:1
55,68:2
55,69:2
55,72:1
55,80:4
56,1:2
56,2:2
56,3:2
56,4:2
56,6:2
56,8:1
56,9:2
56,10:1
56,11:2
56,12:2
56,13:2
56,14:1
56,15:3
56,17:3
56,18:3
56,19:2
56,22:2
56,23:4
56,24:4
56,25:4
56,26:4
56,28:2
56,29:1
56,30:2
56,31:1
56,32:1
56,34:4
56,35:4
56,37:4
56,38:1
56,40:4
56,42:4
56,44:1
56,45:3
56,47:2
56,48:3
56,49:2
56,50:4
56,51:4
56,52:4
56,53:2
56,54:1
56,68:2
56,69:2
56,72:1
56,80:4
57,23:1
57,24:1
57,25:1
57,26:1
57,34:1
57,35:1
57,37:1
57,40:1
57,42:1
57,50:1
57,51:1
57,52:1
57,80:1
58,1:1
58,2:1
58,3:1
58,4:1
58,6:1
58,9:1
58,11:1
58,12:1
58,13:1
58,15:2
58,17:2
58,18:2
58,19:1
58,22:1
58,23:3
58,24:3
58,25:3
58,26:3
58,28:1
58,30:1
58,34:3
58,35:3
58,37:3
58,40:3
58,42:3
58,45:2
58,47:1
58,48:2
58,49:1
58,50:3
58,51:3
58,52:3
58,53:1
58,57:2
58,59:1
58,60:3
58,61:3
58,63:1
58,65:1
58,68:1
58,69:1
58,80:3
59,15:1
59,17:1
59,18:1
59,23:2
59,24:2
59,25:2
59,26:2
59,34:2
59,35:2
59,37:2
59,40:2
59,42:2
59,45:1
59,48:1
59,50:2
59,51:2
59,52:2
59,57:1
59,60:2
59,61:2
59,80:2
62,1:2
62,2:2
62,3:2
62,4:2
62,6:2
62,8:1
62,9:2
62,10:1
62,11:2
62,12:2
62,13:2
62,14:1
62,15:3
62,17:3
62,18:3
62,19:2
62,22:2
62,23:4
62,24:4
62,25:4
62,26:4
62,28:2
62,29:1
62,30:2
62,31:1
62,32:1
62,34:4
62,35:4
62,37:4
62,38:1
62,40:4
62,42:4
62,44:1
62,45:3
62,47:2
62,48:3
62,49:2
62,50:4
62,51:4
62,52:4
62,53:2
62,54:1
62,57:3
62,58:1
62,59:2
62,60:4
62,61:4
62,63:2
62,65:2
62,68:2
62,69:2
62,72:1
62,80:4
63,15:1
63,17:1
63,18:1
63,23:2
63,24:2
63,25:2
63,26:2
63,34:2
63,35:2
63,37:2
63,40:2
63,42:2
63,45:1
63,48:1
63,50:2
63,51:2
63,52:2
63,57:1
63,60:2
63,61:2
63,80:2
64,1:2
64,2:2
64,3:2
64,4:2
64,6:2
64,8:1
64,9:2
64,10:1
64,11:2
64,12:2
64,13:2
64,14:1
64,15:3
64,17:3
64,18:3
64,19:2
64,22:2
64,23:4
64,24:4
64,25:4
64,26:4
64,28:2
64,29:1
64,30:2
64,31:1
64,32:1
64,34:4
64,35:4
64,37:4
64,38:1
64,40:4
64,42:4
64,44:1
64,45:3
64,47:2
64,48:3
64,49:2
64,50:4
64,51:4
64,52:4
64,53:2
64,54:1
64,57:3
64,58:1
64,59:2
64,60:4
64,61:4
64,63:2
64,65:2
64,68:2
64,69:2
64,72:1
64,80:4
65,15:1
65,17:1
65,18:1
65,23:2
65,24:2
65,25:2
65,26:2
65,34:2
65,35:2
65,37:2
65,40:2
65,42:2
65,45:1
65,48:1
65,50:2
65,51:2
65,52:2
65,57:1
65,60:2
65,61:2
65,80:2
66,1:2
66,2:2
66,3:2
66,4:2
66,6:2
66,8:1
66,9:2
66,10:1
66,11:2
66,12:2
66,13:2
66,14:1
66,15:3
66,17:3
66,18:3
66,19:2
66,22:2
66,23:4
66,24:4
66,25:4
66,26:4
66,28:2
66,29:1
66,30:2
66,31:1
66,32:1
66,34:4
66,35:4
66,37:4
66,38:1
66,40:4
66,42:4
66,44:1
66,45:3
66,47:2
66,48:3
66,49:2
66,50:4
66,51:4
66,52:4
66,53:2
66,54:1
66,57:3
66,58:1
66,59:2
66,60:4
66,61:4
66,63:2
66,65:2
66,68:2
66,69:2
66,72:1
66,80:4
67,1:2
67,2:2
67,3:2
67,4:2
67,6:2
67,8:1
67,9:2
67,10:1
67,11:2
67,12:2
67,13:2
67,14:1
67,15:3
67,17:3
67,18:3
67,19:2
67,22:2
67,23:4
67,24:4
67,25:4
67,26:4
67,28:2
67,29:1
67,30:2
67,31:1
67,32:1
67,34:4
67,35:4
67,37:4
67,38:1
67,40:4
67,42:4
67,44:1
67,45:3
67,47:2
67,48:3
67,49:2
67,50:4
67,51:4
67,52:4
67,53:2
67,54:1
67,57:3
67,58:1
67,59:2
67,60:4
67,61:4
67,63:2
67,65:2
67,68:2
67,69:2
67,72:1
67,80:4
68,15:1
68,17:1
68,18:1
68,23:2
68,24:2
68,25:2
68,26:2
68,34:2
68,35:2
68,37:2
68,40:2
68,42:2
68,45:1
68,48:1
68,50:2
68,51:2
68,52:2
68,57:1
68,60:2
68,61:2
68,75:2
68,77:2
69,15:1
69,17:1
69,18:1
69,23:2
69,24:2
69,25:2
69,26:2
69,34:2
69,35:2
69,37:2
69,40:2
69,42:2
69,45:1
69,48:1
69,50:2
69,51:2
69,52:2
69,57:1
69,60:2
69,61:2
69,75:2
69,77:2
70,1:2
70,2:2
70,3:2
70,4:2
70,6:2
70,8:1
70,9:2
70,10:1
70,11:2
70,12:2
70,13:2
70,14:1
70,15:3
70,17:3
70,18:3
70,19:2
70,22:2
70,23:4
70,24:4
70,25:4
70,26:4
70,28:2
70,29:1
70,30:2
70,31:1
70,32:1
70,34:4
70,35:4
70,37:4
70,38:1
70,40:4
70,42:4
70,44:1
70,45:3
70,47:2
70,48:3
70,49:2
70,50:4
70,51:4
70,52:4
70,53:2
70,54:1
70,57:3
70,58:1
70,59:2
70,60:4
70,61:4
70,63:2
70,65:2
70,68:2
70,69:2
70,73:2
70,74:2
70,75:4
70,76:2
70,77:4
71,1:2
71,2:2
71,3:2
71,4:2
71,6:2
71,8:1
71,9:2
71,10:1
71,11:2
71,12:2
71,13:2
71,14:1
71,15:3
71,17:3
71,18:3
71,19:2
71,22:2
71,23:4
71,24:4
71,25:4
71,26:4
71,28:2
71,29:1
71,30:2
71,31:1
71,32:1
71,34:4
71,35:4
71,37:4
71,38:1
71,40:4
71,42:4
71,44:1
71,45:3
71,47:2
71,48:3
71,49:2
71,50:4
71,51:4
71,52:4
71,53:2
71,54:1
71,57:3
71,58:1
71,59:2
71,60:4
71,61:4
71,63:2
71,65:2
71,68:2
71,69:2
71,72:1
71,80:4
72,1:1
72,2:1
72,3:1
72,4:1
72,6:1
72,9:1
72,11:1
72,12:1
72,13:1
72,15:2
72,17:2
72,18:2
72,19:1
72,22:1
72,23:3
72,24:3
72,25:3
72,26:3
72,28:1
72,30:1
72,34:3
72,35:3
72,37:3
72,40:3
72,42:3
72,45:2
72,47:1
72,48:2
72,49:1
72,50:3
72,51:3
72,52:3
72,53:1
72,57:2
72,59:1
72,60:3
72,61:3
72,63:1
72,65:1
72,68:1
72,69:1
72,73:1
72,74:1
72,75:3
72,76:1
72,77:3
73,15:1
73,17:1
73,18:1
73,23:2
73,24:2
73,25:2
73,26:2
73,34:2
73,35:2
73,37:2
73,40:2
73,42:2
73,45:1
73,48:1
73,50:2
73,51:2
73,52:2
73,57:1
73,60:2
73,61:2
73,80:2
74,15:1
74,17:1
74,18:1
74,23:2
74,24:2
74,25:2
74,26:2
74,34:2
74,35:2
74,37:2
74,40:2
74,42:2
74,45:1
74,48:1
74,50:2
74,51:2
74,52:2
74,57:1
74,60:2
74,61:2
74,80:2
76,15:1
76,17:1
76,18:1
76,23:2
76,24:2
76,25:2
76,26:2
76,34:2
76,35:2
76,37:2
76,40:2
76,42:2
76,45:1
76,48:1
76,50:2
76,51:2
76,52:2
76,57:1
76,60:2
76,61:2
76,75:2
76,77:2
76,80:2
78,1:1
78,2:1
78,3:1
78,4:1
78,6:1
78,9:1
78,11:1
78,12:1
78,13:1
78,15:2
78,17:2
78,18:2
78,19:1
78,22:1
78,23:3
78,24:3
78,25:3
78,26:3
78,28:1
78,30:1
78,34:3
78,35:3
78,37:3
78,40:3
78,42:3
78,45:2
78,47:1
78,48:2
78,49:1
78,50:3
78,51:3
78,52:3
78,53:1
78,57:2
78,59:1
78,60:3
78,61:3
78,63:1
78,65:1
78,68:1
78,69:1
78,73:1
78,74:1
78,75:3
78,76:1
78,77:3
78,80:3
79,1:2
79,2:2
79,3:2
79,4:2
79,6:2
79,8:1
79,9:2
79,10:1
79,11:2
79,12:2
79,13:2
79,14:1
79,15:3
79,17:3
79,18:3
79,19:2
79,22:2
79,23:4
79,24:4
79,25:4
79,26:4
79,28:2
79,29:1
79,30:2
79,31:1
79,32:1
79,34:4
79,35:4
79,37:4
79,38:1
79,40:4
79,42:4
79,44:1
79,45:3
79,47:2
79,48:3
79,49:2
79,50:4
79,51:4
79,52:4
79,53:2
79,54:1
79,57:3
79,58:1
79,59:2
79,60:4
79,61:4
79,63:2
79,65:2
79,68:2
79,69:2
79,72:1
79,73:2
79,74:2
79,75:4
79,76:2
79,77:4
79,78:1
79,80:4
81,15:1
81,17:1
81,18:1
81,23:2
81,24:2
81,25:2
81,26:2
81,34:2
81,35:2
81,37:2
81,40:2
81,42:2
81,45:1
81,48:1
81,50:2
81,51:2
81,52:2
81,57:1
81,60:2
81,61:2
81,75:2
81,77:2
81,80:2
82,15:1
82,17:1
82,18:1
82,23:2
82,24:2
82,25:2
82,26:2
82,34:2
82,35:2
82,37:2
82,40:2
82,42:2
82,45:1
82,48:1
82,50:2
82,51:2
82,52:2
82,57:1
82,60:2
82,61:2
82,75:2
82,77:2
82,80:2
82,84:1
82,85:2
83,15:1
83,17:1
83,18:1
83,23:2
83,24:2
83,25:2
83,26:2
83,34:2
83,35:2
83,37:2
83,40:2
83,42:2
83,45:1
83,48:1
83,50:2
83,51:2
83,52:2
83,57:1
83,60:2
83,61:2
83,75:2
83,77:2
83,80:2
83,84:1
83,85:2
84,23:1
84,24:1
84,25:1
84,26:1
84,34:1
84,35:1
84,37:1
84,40:1
84,42:1
84,50:1
84,51:1
84,52:1
84,60:1
84,61:1
84,75:1
84,77:1
84,80:1
84,85:1
88,1:1
88,2:1
88,3:1
88,4:1
88,6:1
88,9:1
88,11:1
88,12:1
88,13:1
88,15:2
88,17:2
88,18:2
88,19:1
88,22:1
88,23:3
88,24:3
88,25:3
88,26:3
88,28:1
88,30:1
88,34:3
88,35:3
88,37:3
88,40:3
88,42:3
88,45:2
88,47:1
88,48:2
88,49:1
88,50:3
88,51:3
88,52:3
88,53:1
88,57:2
88,59:1
88,60:3
88,61:3
88,63:1
88,65:1
88,68:1
88,69:1
88,73:1
88,74:1
88,75:3
88,76:1
88,77:3
88,80:3
88,81:1
88,82:1
88,83:1
88,84:2
88,85:3
88,86:3
88,87:3
88,89:1
89,15:1
89,17:1
89,18:1
89,23:2
89,24:2
89,25:2
89,26:2
89,34:2
89,35:2
89,37:2
89,40:2
89,42:2
89,45:1
89,48:1
89,50:2
89,51:2
89,52:2
89,57:1
89,60:2
89,61:2
89,75:2
89,77:2
89,80:2
89,84:1
89,85:2
89,86:2
89,87:2

<end>

<optimal SALBP-1 value>
44


<rand seed>
467321153

